sat-competition-2018/orders/benchmarks-rho/cms-scheel-sha3-order-w1-rr-o1.cnf
c This is a CNF SAT formula in the DIMACS CNF format,
c produced with the bc2cnf translator by Tommi Junttila;
c see http://users.ics.aalto.fi/tjunttil/circuits/index.html
c cidentity <-> 1
c h1out24 <-> 28
c h1r0r24 <-> 28
c h1in24 <-> 28
c h1out23 <-> 29
c h1r0r23 <-> 29
c h1in23 <-> 29
c h1out22 <-> 30
c h1r0r22 <-> 30
c h1in22 <-> 30
c h1out21 <-> 31
c h1r0r21 <-> 31
c h1in21 <-> 31
c h1out20 <-> 32
c h1r0r20 <-> 32
c h1in20 <-> 32
c h1out19 <-> 33
c h1r0r19 <-> 33
c h1in19 <-> 33
c h1out18 <-> 34
c h1r0r18 <-> 34
c h1in18 <-> 34
c h1out17 <-> 35
c h1r0r17 <-> 35
c h1in17 <-> 35
c h1out16 <-> 36
c h1r0r16 <-> 36
c h1in16 <-> 36
c h1out15 <-> 37
c h1r0r15 <-> 37
c h1in15 <-> 37
c h1out14 <-> 38
c h1r0r14 <-> 38
c h1in14 <-> 38
c h1out13 <-> 39
c h1r0r13 <-> 39
c h1in13 <-> 39
c h1out12 <-> 40
c h1r0r12 <-> 40
c h1in12 <-> 40
c h1out11 <-> 41
c h1r0r11 <-> 41
c h1in11 <-> 41
c h1out10 <-> 42
c h1r0r10 <-> 42
c h1in10 <-> 42
c h1out9 <-> 43
c h1r0r9 <-> 43
c h1in9 <-> 43
c h1out8 <-> 44
c h1r0r8 <-> 44
c h1in8 <-> 44
c h1out7 <-> 45
c h1r0r7 <-> 45
c h1in7 <-> 45
c h1out6 <-> 46
c h1r0r6 <-> 46
c h1in6 <-> 46
c h1out5 <-> 47
c h1r0r5 <-> 47
c h1in5 <-> 47
c h1out4 <-> 48
c h1r0r4 <-> 48
c h1in4 <-> 48
c h1out3 <-> 49
c h1r0r3 <-> 49
c h1in3 <-> 49
c h1out2 <-> 50
c h1r0r2 <-> 50
c h1in2 <-> 50
c h1out1 <-> 51
c h1r0r1 <-> 51
c h1in1 <-> 51
c h1out0 <-> 52
c h1r0r0 <-> 52
c h1in0 <-> 52
p cnf 52 128
1 0
-2 3 0
-2 4 0
-2 5 0
-2 6 0
-2 7 0
-2 8 0
-2 9 0
-2 10 0
-2 11 0
-2 12 0
-2 13 0
-2 14 0
-2 15 0
-2 16 0
-2 17 0
-2 18 0
-2 19 0
-2 20 0
-2 21 0
-2 22 0
-2 23 0
-2 24 0
-2 25 0
-2 26 0
-2 27 0
2 -27 -26 -25 -24 -23 -22 -21 -20 -19 -18 -17 -16 -15 -14 -13 -12 -11 -10 -9 -8 -7 -6 -5 -4 -3 0
-2 0
3 28 28 0
3 -28 -28 0
-3 28 -28 0
-3 -28 28 0
4 29 29 0
4 -29 -29 0
-4 29 -29 0
-4 -29 29 0
5 30 30 0
5 -30 -30 0
-5 30 -30 0
-5 -30 30 0
6 31 31 0
6 -31 -31 0
-6 31 -31 0
-6 -31 31 0
7 32 32 0
7 -32 -32 0
-7 32 -32 0
-7 -32 32 0
8 33 33 0
8 -33 -33 0
-8 33 -33 0
-8 -33 33 0
9 34 34 0
9 -34 -34 0
-9 34 -34 0
-9 -34 34 0
10 35 35 0
10 -35 -35 0
-10 35 -35 0
-10 -35 35 0
11 36 36 0
11 -36 -36 0
-11 36 -36 0
-11 -36 36 0
12 37 37 0
12 -37 -37 0
-12 37 -37 0
-12 -37 37 0
13 38 38 0
13 -38 -38 0
-13 38 -38 0
-13 -38 38 0
14 39 39 0
14 -39 -39 0
-14 39 -39 0
-14 -39 39 0
15 40 40 0
15 -40 -40 0
-15 40 -40 0
-15 -40 40 0
16 41 41 0
16 -41 -41 0
-16 41 -41 0
-16 -41 41 0
17 42 42 0
17 -42 -42 0
-17 42 -42 0
-17 -42 42 0
18 43 43 0
18 -43 -43 0
-18 43 -43 0
-18 -43 43 0
19 44 44 0
19 -44 -44 0
-19 44 -44 0
-19 -44 44 0
20 45 45 0
20 -45 -45 0
-20 45 -45 0
-20 -45 45 0
21 46 46 0
21 -46 -46 0
-21 46 -46 0
-21 -46 46 0
22 47 47 0
22 -47 -47 0
-22 47 -47 0
-22 -47 47 0
23 48 48 0
23 -48 -48 0
-23 48 -48 0
-23 -48 48 0
24 49 49 0
24 -49 -49 0
-24 49 -49 0
-24 -49 49 0
25 50 50 0
25 -50 -50 0
-25 50 -50 0
-25 -50 50 0
26 51 51 0
26 -51 -51 0
-26 51 -51 0
-26 -51 51 0
27 52 52 0
27 -52 -52 0
-27 52 -52 0
-27 -52 52 0
